(declare-fun v17 () (_ BitVec 10))
(declare-fun v19 () (_ BitVec 9))
(assert
(let (($e13 (_ bv34 8)))
(let (($e21 (_ bv0 2)))
(let (($e403 (concat $e21 $e13)))
(let (($e404 (bvand        $e403         v17 )))
(let (($e405 (concat v19 false )))
(let (($e406 (bvand $e405 $e404)))
(let (($e408      (= $e405 $e406)        ))
             (ite        $e408  $e406 $e404)
                                                                                                                                                                                                                                                                                                                                                                                                                                                                                                                                                                                                                                                                                                                                                                                                                                                                                                                                                                                                                                                                                                                                                                                                                                                                                                                                                                                                                                                                                                                                                                                                                                                                                                                                                                                                                                                                                                                                                                                                                                                                                                                                                                                                                                                                                                                                                                                                                                                                                                                                                                                                                                                                                                                                                                                                                                                                                                                                                                                                                                                                                                                                                                                                                                                                                                                                                                                                                                                                                                                                                                                                                                                                                                                                                                                                                                                                                                                                                                                                                                                                                                                                                                                                                                                                                                                                                                                                                                                                                                                                                                                                                                                                                                                                                                                                                                                                                                                                                                                                                                                                                                                                                                                                                                                                                                                                                                                                                                                                                                                                                                                                                                                                                                                                                                                                                                                                                                                                                                                                                                                                                                                                                                                                                                                                                                                                                                                                                                                                                                                                                                                                                                                                                                                                                                                                                                                                                                                                                                                                                                                                                                                                                                           ) ))))                                                                                                                                                                                                                                                                                                                                                                   )       )            )
